
Welcome to IBM(R) ILOG(R) CPLEX(R) Interactive Optimizer 22.1.1.0
  with Simplex, Mixed Integer & Barrier Optimizers
5725-A06 5725-A29 5724-Y48 5724-Y49 5724-Y54 5724-Y55 5655-Y21
Copyright IBM Corp. 1988, 2022.  All Rights Reserved.

Type 'help' for a list of available commands.
Type 'help' followed by a command name for more
information on commands.

CPLEX> Selected objective sense:  MINIMIZE
Selected objective  name:  00000000
Selected RHS        name:  RHS1
Selected bound      name:  BOUND
Problem 'ee.mps' read.
Read time = 0.03 sec. (3.17 ticks)
CPLEX> New value for time limit in seconds: 7200
CPLEX> New value for parallel optimization mode: -1
CPLEX> New value for default parallel thread count: 40
CPLEX> New value for mixed integer optimality gap tolerance: 1e-13
CPLEX> Version identifier: 22.1.1.0 | 2022-11-28 | 9160aff4d
CPXPARAM_Threads                                 40
CPXPARAM_Parallel                                -1
CPXPARAM_TimeLimit                               7200
CPXPARAM_MIP_Tolerances_MIPGap                   1e-13
Found incumbent of value 0.000000 after 0.00 sec. (0.31 ticks)
Tried aggregator 2 times.
MIP Presolve eliminated 181 rows and 2745 columns.
MIP Presolve modified 6090 coefficients.
Aggregator did 713 substitutions.
Reduced MIP has 3636 rows, 7835 columns, and 28932 nonzeros.
Reduced MIP has 7835 binaries, 0 generals, 0 SOSs, and 0 indicators.
Presolve time = 0.07 sec. (68.89 ticks)
Probing time = 0.03 sec. (5.78 ticks)
Tried aggregator 1 time.
Detecting symmetries...
Reduced MIP has 3636 rows, 7835 columns, and 28932 nonzeros.
Reduced MIP has 7835 binaries, 0 generals, 0 SOSs, and 0 indicators.
Presolve time = 0.02 sec. (21.99 ticks)
Probing time = 0.02 sec. (5.59 ticks)
Clique table members: 18782.
MIP emphasis: balance optimality and feasibility.
MIP search method: dynamic search.
Parallel mode: opportunistic, using up to 40 threads.
Root relaxation solution time = 0.09 sec. (77.76 ticks)

        Nodes                                         Cuts/
   Node  Left     Objective  IInf  Best Integer    Best Bound    ItCnt     Gap

*     0+    0                            0.0000  -1.54000e+13              --- 
*     0+    0                      -6.00000e+12  -1.54000e+13           156.67%
      0     0  -1.53900e+13    71  -6.00000e+12  -1.53900e+13     2120  156.50%
*     0+    0                      -1.53900e+13  -1.53900e+13             0.00%
      0     0  -1.53900e+13   107  -1.53900e+13      Cuts: 75     4169    0.00%
*     0+    0                      -1.53900e+13  -1.53900e+13             0.00%
      0     0  -1.53900e+13   112  -1.53900e+13      Cuts: 76     4285    0.00%
*     0+    0                      -1.53900e+13  -1.53900e+13             0.00%
*     0+    0                      -1.53900e+13  -1.53900e+13             0.00%
      0    32        cutoff        -1.53900e+13  -1.53900e+13     5871    0.00%
Elapsed time = 2.24 sec. (1294.68 ticks, tree = 0.02 MB, solutions = 6)
    368   183  -1.53900e+13    70  -1.53900e+13  -1.53900e+13    21928    0.00%
   1211   441        cutoff        -1.53900e+13  -1.53900e+13    55783    0.00%
*  1628   859      integral     0  -1.53900e+13  -1.53900e+13   112382    0.00%
   1869   561  -1.53900e+13    86  -1.53900e+13  -1.53900e+13    75649    0.00%
   2291   999  -1.53900e+13   143  -1.53900e+13  -1.53900e+13   133623    0.00%
   2636  1094  -1.53900e+13    72  -1.53900e+13  -1.53900e+13   187806    0.00%
   3215   994  -1.53900e+13   181  -1.53900e+13  -1.53900e+13   165217    0.00%
   3906  1276  -1.53900e+13    82  -1.53900e+13  -1.53900e+13   217899    0.00%
   4593  1924  -1.53900e+13   164  -1.53900e+13  -1.53900e+13   309825    0.00%
   5154  1846  -1.53900e+13   107  -1.53900e+13  -1.53900e+13   298649    0.00%
   7017  1844  -1.53900e+13   102  -1.53900e+13  -1.53900e+13   407038    0.00%
Elapsed time = 8.73 sec. (4398.57 ticks, tree = 20.80 MB, solutions = 13)
   8782  2256  -1.53900e+13   180  -1.53900e+13  -1.53900e+13   518091    0.00%
   9839  3017        cutoff        -1.53900e+13  -1.53900e+13   702239    0.00%
  10472  3224  -1.53900e+13   347  -1.53900e+13  -1.53900e+13   757007    0.00%

Performing restart 1

Repeating presolve.
Tried aggregator 2 times.
MIP Presolve eliminated 1124 rows and 3108 columns.
MIP Presolve modified 1773 coefficients.
Aggregator did 725 substitutions.
Reduced MIP has 1777 rows, 3891 columns, and 13949 nonzeros.
Reduced MIP has 3891 binaries, 0 generals, 0 SOSs, and 0 indicators.
Presolve time = 0.07 sec. (61.76 ticks)
Tried aggregator 1 time.
MIP Presolve eliminated 25 rows and 25 columns.
Reduced MIP has 1752 rows, 3863 columns, and 13848 nonzeros.
Reduced MIP has 3863 binaries, 0 generals, 0 SOSs, and 0 indicators.
Presolve time = 0.02 sec. (15.37 ticks)
Represolve time = 0.18 sec. (114.65 ticks)
  10473     0  -1.53900e+13   210  -1.53900e+13      Cuts: 17   970254    0.00%
  10473     0  -1.53900e+13   173  -1.53900e+13      Cuts: 29   970417    0.00%
  10473     0  -1.53900e+13   192  -1.53900e+13      Cuts: 29   970655    0.00%
  10473     0  -1.53900e+13   331  -1.53900e+13      Cuts: 51   970927    0.00%
  10473     0  -1.53900e+13   290  -1.53900e+13      Cuts: 30   971137    0.00%
  10473     0  -1.53900e+13   244  -1.53900e+13      Cuts: 21   971251    0.00%
  10473     0  -1.53900e+13   342  -1.53900e+13      Cuts: 24   971600    0.00%
  10473     0  -1.53900e+13   292  -1.53900e+13      Cuts: 39   971713    0.00%
  10473     0  -1.53900e+13   261  -1.53900e+13      Cuts: 37   971968    0.00%
  10473     0  -1.53900e+13   277  -1.53900e+13      Cuts: 38   972187    0.00%
  10473     0  -1.53900e+13   331  -1.53900e+13      Cuts: 50   972368    0.00%
  10473     0  -1.53900e+13   303  -1.53900e+13      Cuts: 70   972606    0.00%
  10473     0  -1.53900e+13   316  -1.53900e+13      Cuts: 36   972693    0.00%
  10473     0  -1.53900e+13   362  -1.53900e+13      Cuts: 43   972875    0.00%
  10473     0  -1.53900e+13   340  -1.53900e+13      Cuts: 24   972953    0.00%
  10473     0  -1.53900e+13   326  -1.53900e+13  ZeroHalf: 13   973060    0.00%
  10473     7        cutoff        -1.53900e+13  -1.53900e+13   975431    0.00%
  10711    22  -1.53900e+13   135  -1.53900e+13  -1.53900e+13   978860    0.00%

Clique cuts applied:  13
Cover cuts applied:  216
Flow cuts applied:  3
Mixed integer rounding cuts applied:  20
Zero-half cuts applied:  76
Gomory fractional cuts applied:  7

Root node processing (before b&c):
  Real time             =    1.48 sec. (1286.67 ticks)
Parallel b&c, 40 threads:
  Real time             =   13.97 sec. (10044.31 ticks)
  Sync time (average)   =    1.84 sec.
  Wait time (average)   =    0.10 sec.
                          ------------
Total (root+branch&cut) =   15.44 sec. (11330.98 ticks)

Solution pool: 23 solutions saved.

MIP - Integer optimal solution:  Objective = -1.5389999789e+13
Solution time =   15.57 sec.  Iterations = 988286  Nodes = 10729
Deterministic time = 11331.02 ticks  (727.65 ticks/sec)

CPLEX> Solution 'p24' written to file 'ee.sol'.
CPLEX> 